30
1 0 6
2 0 10
2 1 3
3 0 12
3 1 11
3 2 5
4 0 7
4 1 1
4 2 5
4 3 8
5 0 7
5 1 8
5 2 4
5 3 9
5 4 5
6 0 7
6 1 11
6 2 2
6 3 1
6 4 11
6 5 9
7 0 13
7 1 10
7 2 5
7 3 8
7 4 6
7 5 12
7 6 9
8 0 5
8 1 14
8 2 1
8 3 7
8 4 14
8 5 5
8 6 10
8 7 4
9 0 4
9 1 10
9 2 11
9 3 11
9 4 4
9 5 3
9 6 13
9 7 3
9 8 8
10 0 7
10 1 14
10 2 1
10 3 10
10 4 5
10 5 3
10 6 12
10 7 1
10 8 12
10 9 3
11 0 9
11 1 11
11 2 14
11 3 7
11 4 1
11 5 10
11 6 13
11 7 8
11 8 2
11 9 3
11 10 1
12 0 1
12 1 7
12 2 5
12 3 8
12 4 10
12 5 13
12 6 2
12 7 3
12 8 14
12 9 4
12 10 9
12 11 4
13 0 14
13 1 1
13 2 13
13 3 8
13 4 13
13 5 9
13 6 9
13 7 6
13 8 2
13 9 3
13 10 1
13 11 4
13 12 11
14 0 9
14 1 1
14 2 5
14 3 9
14 4 10
14 5 14
14 6 2
14 7 11
14 8 8
14 9 9
14 10 10
14 11 5
14 12 10
14 13 14
15 0 5
15 1 1
15 2 2
15 3 4
15 4 14
15 5 6
15 6 10
15 7 8
15 8 8
15 9 13
15 10 10
15 11 14
15 12 5
15 13 4
15 14 8
16 0 7
16 1 5
16 2 10
16 3 8
16 4 9
16 5 4
16 6 11
16 7 8
16 8 14
16 9 12
16 10 14
16 11 9
16 12 13
16 13 9
16 14 4
16 15 11
17 0 7
17 1 2
17 2 8
17 3 3
17 4 5
17 5 4
17 6 5
17 7 14
17 8 1
17 9 2
17 10 11
17 11 1
17 12 4
17 13 8
17 14 2
17 15 6
17 16 9
18 0 1
18 1 11
18 2 9
18 3 10
18 4 9
18 5 12
18 6 5
18 7 3
18 8 10
18 9 11
18 10 5
18 11 7
18 12 14
18 13 3
18 14 8
18 15 9
18 16 13
18 17 10
19 0 5
19 1 4
19 2 13
19 3 11
19 4 2
19 5 4
19 6 10
19 7 5
19 8 6
19 9 9
19 10 13
19 11 9
19 12 13
19 13 4
19 14 8
19 15 11
19 16 14
19 17 13
19 18 11
20 0 2
20 1 9
20 2 10
20 3 4
20 4 8
20 5 5
20 6 9
20 7 10
20 8 11
20 9 13
20 10 8
20 11 7
20 12 9
20 13 1
20 14 3
20 15 5
20 16 7
20 17 2
20 18 5
20 19 12
21 0 7
21 1 12
21 2 8
21 3 1
21 4 8
21 5 3
21 6 9
21 7 5
21 8 12
21 9 3
21 10 11
21 11 9
21 12 2
21 13 6
21 14 1
21 15 1
21 16 4
21 17 10
21 18 10
21 19 10
21 20 10
22 0 2
22 1 10
22 2 7
22 3 3
22 4 4
22 5 11
22 6 13
22 7 12
22 8 10
22 9 7
22 10 4
22 11 2
22 12 7
22 13 5
22 14 10
22 15 11
22 16 11
22 17 11
22 18 1
22 19 2
22 20 8
22 21 2
23 0 7
23 1 6
23 2 5
23 3 12
23 4 3
23 5 4
23 6 2
23 7 2
23 8 1
23 9 8
23 10 12
23 11 10
23 12 8
23 13 10
23 14 4
23 15 14
23 16 3
23 17 14
23 18 4
23 19 1
23 20 9
23 21 11
23 22 1
24 0 6
24 1 1
24 2 10
24 3 1
24 4 2
24 5 11
24 6 1
24 7 14
24 8 5
24 9 2
24 10 11
24 11 3
24 12 8
24 13 12
24 14 4
24 15 9
24 16 3
24 17 9
24 18 10
24 19 13
24 20 12
24 21 1
24 22 3
24 23 10
25 0 7
25 1 11
25 2 6
25 3 11
25 4 6
25 5 11
25 6 12
25 7 3
25 8 13
25 9 1
25 10 13
25 11 6
25 12 12
25 13 2
25 14 12
25 15 13
25 16 13
25 17 5
25 18 12
25 19 3
25 20 10
25 21 9
25 22 2
25 23 9
25 24 13
26 0 2
26 1 3
26 2 3
26 3 11
26 4 5
26 5 13
26 6 4
26 7 13
26 8 4
26 9 2
26 10 10
26 11 9
26 12 14
26 13 7
26 14 10
26 15 11
26 16 2
26 17 3
26 18 13
26 19 14
26 20 4
26 21 10
26 22 14
26 23 11
26 24 2
26 25 2
27 0 10
27 1 10
27 2 12
27 3 11
27 4 11
27 5 1
27 6 2
27 7 9
27 8 12
27 9 7
27 10 4
27 11 9
27 12 13
27 13 2
27 14 11
27 15 6
27 16 14
27 17 10
27 18 12
27 19 3
27 20 2
27 21 7
27 22 2
27 23 3
27 24 10
27 25 5
27 26 10
28 0 7
28 1 6
28 2 11
28 3 7
28 4 12
28 5 3
28 6 8
28 7 1
28 8 3
28 9 13
28 10 13
28 11 10
28 12 2
28 13 10
28 14 1
28 15 4
28 16 4
28 17 6
28 18 3
28 19 10
28 20 12
28 21 9
28 22 5
28 23 1
28 24 1
28 25 1
28 26 2
28 27 4
29 0 10
29 1 1
29 2 7
29 3 2
29 4 13
29 5 5
29 6 14
29 7 8
29 8 2
29 9 1
29 10 14
29 11 8
29 12 5
29 13 11
29 14 6
29 15 6
29 16 4
29 17 9
29 18 14
29 19 2
29 20 13
29 21 7
29 22 1
29 23 7
29 24 14
29 25 2
29 26 11
29 27 4
29 28 8
